3 3 1.6
3 1 1 17 2 1 40 2 130 2 2 50 3 60
3 1 1 30 2 1 150 2 160 1 3 70
3 2 1 50 2 60 2 2 170 3 180 2 2 90 3 100

17 10 1000000 11 8 1000000 10 1000000 1000000 
7 14 1000000 9 10 1000000 7 1000000 1000000 
1000000 1000000 1000000 1000000 1000000 1000000 1000000 1000000 1000000 
7 9 1000000 18 10 1000000 9 1000000 1000000 
9 10 1000000 11 17 1000000 10 1000000 1000000 
1000000 1000000 1000000 1000000 1000000 1000000 1000000 1000000 1000000 
9 7 1000000 12 8 1000000 14 1000000 1000000 
1000000 1000000 1000000 1000000 1000000 1000000 1000000 1000000 1000000 
1000000 1000000 1000000 1000000 1000000 1000000 1000000 1000000 1000000 
1000000 1000000 1000000 1000000 1000000 1000000 1000000 1000000 1000000 
1000000 16 10 1000000 9 1000000 10 10 8 
1000000 6 14 1000000 13 1000000 6 10 10 
1000000 1000000 1000000 1000000 1000000 1000000 1000000 1000000 1000000 
1000000 8 10 1000000 15 1000000 7 12 8 
1000000 1000000 1000000 1000000 1000000 1000000 1000000 1000000 1000000 
1000000 8 8 1000000 10 1000000 14 5 8 
1000000 11 8 1000000 8 1000000 9 14 9 
1000000 8 8 1000000 7 1000000 12 10 15 
1000000 1000000 1000000 1000000 1000000 1000000 1000000 1000000 1000000 
1000000 1000000 1000000 1000000 1000000 1000000 1000000 1000000 1000000 
1000000 1000000 15 1000000 1000000 11 1000000 8 8 
1000000 1000000 1000000 1000000 1000000 1000000 1000000 1000000 1000000 
1000000 1000000 1000000 1000000 1000000 1000000 1000000 1000000 1000000 
1000000 1000000 9 1000000 1000000 18 1000000 6 10 
1000000 1000000 1000000 1000000 1000000 1000000 1000000 1000000 1000000 
1000000 1000000 7 1000000 1000000 12 1000000 15 9 
1000000 1000000 11 1000000 1000000 10 1000000 9 18 
